% seed = 6687562

mint = 51;
% maxt = 194;

nActs = 42;
dur = [0,5,1,7,7,5,5,2,8,2,1,6,2,8,1,9,9,1,9,4,8,10,2,3,4,4,3,4,2,9,3,5,7,8,5,2,2,8,4,5,4,0];

nSkills = 4;
sreq = [| 0,0,0,0,
	| 5,3,4,5,
	| 5,5,0,4,
	| 5,0,6,0,
	| 6,2,5,3,
	| 1,3,6,3,
	| 0,6,0,7,
	| 0,4,7,2,
	| 0,0,4,7,
	| 0,4,4,3,
	| 4,4,3,3,
	| 4,5,4,3,
	| 5,4,5,4,
	| 5,5,0,0,
	| 5,0,0,6,
	| 0,3,4,3,
	| 0,7,3,6,
	| 7,5,0,0,
	| 2,5,4,1,
	| 3,5,0,3,
	| 4,1,5,1,
	| 1,4,3,5,
	| 2,4,1,2,
	| 3,5,4,3,
	| 0,5,0,3,
	| 5,4,0,6,
	| 4,0,3,0,
	| 6,6,0,0,
	| 0,0,7,7,
	| 4,2,0,1,
	| 3,3,1,0,
	| 1,2,4,1,
	| 0,3,3,0,
	| 4,2,4,0,
	| 0,2,1,5,
	| 0,0,5,6,
	| 4,4,3,2,
	| 7,0,6,5,
	| 2,4,0,4,
	| 7,4,3,6,
	| 1,2,3,3,
	| 0,0,0,0, |];

nResources = 30;
mastery = [| true,false,false,false,
	| false,true,true,true,
	| false,true,false,false,
	| false,false,true,true,
	| true,true,false,true,
	| true,false,true,true,
	| false,true,false,false,
	| true,true,true,false,
	| true,false,true,true,
	| false,true,true,true,
	| false,false,false,true,
	| false,true,true,true,
	| false,false,true,false,
	| false,false,false,true,
	| false,false,false,true,
	| false,false,false,true,
	| true,true,false,false,
	| false,false,false,true,
	| false,true,true,false,
	| true,true,true,false,
	| true,true,true,false,
	| true,true,false,true,
	| false,false,false,true,
	| true,true,true,false,
	| true,false,true,false,
	| false,true,true,false,
	| false,false,false,true,
	| true,false,false,true,
	| true,false,true,true,
	| false,true,false,false, |];

nPrecs = 61;
pred = [1,1,1,2,3,4,4,4,5,5,5,6,6,6,7,8,8,8,9,9,9,10,11,12,12,12,13,14,14,14,15,16,16,16,17,18,19,20,21,21,22,23,24,25,26,27,28,29,30,31,32,33,33,34,35,36,37,38,39,40,41];
succ = [2,3,4,23,29,12,5,7,33,21,6,24,14,8,9,25,10,27,10,11,16,15,41,19,20,13,35,29,37,30,26,17,18,22,34,28,30,36,25,32,23,26,32,26,36,31,40,38,34,37,38,34,37,41,36,39,38,41,42,42,42];

nUnrels = 562;
unpred = [2,2,2,2,2,2,2,2,2,2,2,2,2,2,2,2,2,2,2,2,2,2,2,2,2,2,2,2,2,2,2,2,2,2,2,3,3,3,3,3,3,3,3,3,3,3,3,3,3,3,3,3,3,3,3,3,3,3,3,3,3,3,3,3,3,3,3,3,3,3,5,5,5,5,5,5,5,5,5,5,5,5,5,5,5,6,6,6,6,6,6,6,6,6,6,6,6,6,6,6,6,6,7,7,7,7,7,7,7,7,7,7,7,7,7,7,7,7,7,7,8,8,8,8,8,8,8,8,8,8,8,8,8,8,8,8,8,8,8,8,8,8,9,9,9,9,9,9,9,9,9,9,9,9,9,9,9,9,9,10,10,10,10,10,10,10,10,10,10,10,10,10,10,10,10,10,10,10,10,10,10,10,10,10,10,10,11,11,11,11,11,11,11,11,11,11,11,11,11,11,11,11,11,11,11,11,11,11,11,11,11,11,11,11,11,12,12,12,12,12,12,12,12,12,12,12,12,12,12,12,12,12,12,12,12,13,13,13,13,13,13,13,13,13,13,13,13,13,13,13,13,13,13,13,13,13,13,13,13,13,14,14,14,14,14,14,14,14,14,14,14,14,14,14,14,14,14,14,14,14,14,15,15,15,15,15,15,15,15,15,15,15,15,15,15,15,15,15,15,15,15,15,15,15,16,16,16,16,16,16,16,16,16,16,16,16,16,16,17,17,17,17,17,17,17,17,17,17,17,17,17,17,17,17,17,17,17,17,17,17,18,18,18,18,18,18,18,18,18,18,18,18,18,18,18,18,18,18,18,18,18,19,19,19,19,19,19,19,19,19,19,19,19,19,19,19,19,19,19,19,20,20,20,20,20,20,20,20,20,20,20,20,20,20,20,20,20,20,20,21,21,21,21,21,21,21,21,21,21,21,21,21,22,22,22,22,22,22,22,22,22,22,22,22,22,22,22,23,23,23,23,23,23,23,23,23,23,23,23,23,23,23,24,24,24,24,24,24,24,24,24,24,24,24,24,24,25,25,25,25,25,25,25,25,25,25,25,25,25,26,26,26,26,26,26,26,26,26,26,26,26,26,27,27,27,27,27,27,27,27,27,27,28,28,28,28,28,28,28,28,28,28,28,28,29,29,29,29,29,29,29,29,29,29,30,30,30,30,30,30,30,30,30,31,31,31,31,31,31,31,32,32,32,32,32,32,32,33,33,33,33,34,34,34,34,34,34,35,35,35,35,36,36,36,36,37,37,38,38,39,39,40];
unsucc = [3,4,5,6,7,8,9,10,11,12,13,14,15,16,17,18,19,20,21,22,24,25,27,28,29,30,31,32,33,34,35,37,38,40,41,4,5,6,7,8,9,10,11,12,13,14,15,16,17,18,19,20,21,22,23,24,25,26,27,28,30,31,32,33,34,35,36,37,39,40,7,9,11,12,13,16,17,18,19,20,22,23,28,35,40,7,9,11,12,13,16,17,18,19,20,21,22,23,28,33,35,40,8,12,13,14,19,20,21,24,25,27,29,30,31,32,33,35,37,38,9,11,12,13,14,16,17,18,19,20,21,22,23,24,28,29,30,32,33,34,35,40,12,13,14,19,20,21,24,25,27,29,30,31,32,33,35,37,38,11,12,13,14,16,17,18,19,20,21,22,23,24,25,27,28,29,30,31,32,33,34,35,37,38,40,41,12,13,14,15,16,17,18,19,20,21,22,23,24,25,26,27,28,29,30,31,32,33,34,35,36,37,38,39,40,14,15,16,17,18,21,22,23,24,25,26,27,28,29,31,32,33,37,38,40,14,15,16,17,18,19,20,21,22,23,24,25,26,27,28,29,30,31,32,33,34,37,38,40,41,15,16,17,18,19,20,21,22,23,24,25,26,27,28,31,32,33,35,36,39,40,16,17,18,19,20,21,22,23,24,25,27,28,29,30,31,32,33,34,35,37,38,40,41,19,20,21,24,25,27,29,30,31,32,33,35,37,38,18,19,20,21,22,23,24,25,26,27,28,29,30,31,32,33,35,36,37,38,39,40,19,20,21,22,23,24,25,26,27,29,30,31,32,33,34,35,36,37,38,39,41,20,21,22,23,24,25,26,27,28,29,31,32,33,35,36,37,38,39,40,21,22,23,24,25,26,27,28,29,30,31,32,33,34,35,37,38,40,41,22,23,24,27,28,29,30,31,33,34,35,37,40,24,25,27,28,29,30,31,32,33,34,35,37,38,40,41,24,25,27,28,29,30,31,32,33,34,35,37,38,40,41,25,26,27,28,29,30,31,33,34,35,36,37,39,40,27,28,29,30,31,32,33,34,35,37,38,40,41,27,28,29,30,31,32,33,34,35,37,38,40,41,28,29,30,32,33,34,35,36,39,40,29,30,31,32,33,34,35,36,37,38,39,41,30,31,32,33,34,35,36,37,39,40,31,32,33,35,36,37,38,39,40,32,33,34,35,36,39,40,33,34,35,36,37,39,40,35,36,39,40,35,36,37,38,39,40,37,38,40,41,37,38,40,41,39,40,39,40,40,41,41];

USEFUL_RES = [{},
	{1,2,3,4,5,6,7,8,9,10,11,12,13,14,15,16,17,18,19,20,21,22,23,24,25,26,27,28,29,30},
	{1,2,3,4,5,6,7,8,9,10,11,12,14,15,16,17,18,19,20,21,22,23,24,25,26,27,28,29,30},
	{1,2,4,5,6,8,9,10,12,13,17,19,20,21,22,24,25,26,28,29},
	{1,2,3,4,5,6,7,8,9,10,11,12,13,14,15,16,17,18,19,20,21,22,23,24,25,26,27,28,29,30},
	{1,2,3,4,5,6,7,8,9,10,11,12,13,14,15,16,17,18,19,20,21,22,23,24,25,26,27,28,29,30},
	{2,3,4,5,6,7,8,9,10,11,12,14,15,16,17,18,19,20,21,22,23,24,26,27,28,29,30},
	{2,3,4,5,6,7,8,9,10,11,12,13,14,15,16,17,18,19,20,21,22,23,24,25,26,27,28,29,30},
	{2,4,5,6,8,9,10,11,12,13,14,15,16,18,19,20,21,22,23,24,25,26,27,28,29},
	{2,3,4,5,6,7,8,9,10,11,12,13,14,15,16,17,18,19,20,21,22,23,24,25,26,27,28,29,30},
	{1,2,3,4,5,6,7,8,9,10,11,12,13,14,15,16,17,18,19,20,21,22,23,24,25,26,27,28,29,30},
	{1,2,3,4,5,6,7,8,9,10,11,12,13,14,15,16,17,18,19,20,21,22,23,24,25,26,27,28,29,30},
	{1,2,3,4,5,6,7,8,9,10,11,12,13,14,15,16,17,18,19,20,21,22,23,24,25,26,27,28,29,30},
	{1,2,3,5,6,7,8,9,10,12,17,19,20,21,22,24,25,26,28,29,30},
	{1,2,4,5,6,8,9,10,11,12,14,15,16,17,18,20,21,22,23,24,25,27,28,29},
	{2,3,4,5,6,7,8,9,10,11,12,13,14,15,16,17,18,19,20,21,22,23,24,25,26,27,28,29,30},
	{2,3,4,5,6,7,8,9,10,11,12,13,14,15,16,17,18,19,20,21,22,23,24,25,26,27,28,29,30},
	{1,2,3,5,6,7,8,9,10,12,17,19,20,21,22,24,25,26,28,29,30},
	{1,2,3,4,5,6,7,8,9,10,11,12,13,14,15,16,17,18,19,20,21,22,23,24,25,26,27,28,29,30},
	{1,2,3,4,5,6,7,8,9,10,11,12,14,15,16,17,18,19,20,21,22,23,24,25,26,27,28,29,30},
	{1,2,3,4,5,6,7,8,9,10,11,12,13,14,15,16,17,18,19,20,21,22,23,24,25,26,27,28,29,30},
	{1,2,3,4,5,6,7,8,9,10,11,12,13,14,15,16,17,18,19,20,21,22,23,24,25,26,27,28,29,30},
	{1,2,3,4,5,6,7,8,9,10,11,12,13,14,15,16,17,18,19,20,21,22,23,24,25,26,27,28,29,30},
	{1,2,3,4,5,6,7,8,9,10,11,12,13,14,15,16,17,18,19,20,21,22,23,24,25,26,27,28,29,30},
	{2,3,4,5,6,7,8,9,10,11,12,14,15,16,17,18,19,20,21,22,23,24,26,27,28,29,30},
	{1,2,3,4,5,6,7,8,9,10,11,12,14,15,16,17,18,19,20,21,22,23,24,25,26,27,28,29,30},
	{1,2,4,5,6,8,9,10,12,13,17,19,20,21,22,24,25,26,28,29},
	{1,2,3,5,6,7,8,9,10,12,17,19,20,21,22,24,25,26,28,29,30},
	{2,4,5,6,8,9,10,11,12,13,14,15,16,18,19,20,21,22,23,24,25,26,27,28,29},
	{1,2,3,4,5,6,7,8,9,10,11,12,14,15,16,17,18,19,20,21,22,23,24,25,26,27,28,29,30},
	{1,2,3,4,5,6,7,8,9,10,12,13,17,19,20,21,22,24,25,26,28,29,30},
	{1,2,3,4,5,6,7,8,9,10,11,12,13,14,15,16,17,18,19,20,21,22,23,24,25,26,27,28,29,30},
	{2,3,4,5,6,7,8,9,10,12,13,17,19,20,21,22,24,25,26,29,30},
	{1,2,3,4,5,6,7,8,9,10,12,13,17,19,20,21,22,24,25,26,28,29,30},
	{2,3,4,5,6,7,8,9,10,11,12,13,14,15,16,17,18,19,20,21,22,23,24,25,26,27,28,29,30},
	{2,4,5,6,8,9,10,11,12,13,14,15,16,18,19,20,21,22,23,24,25,26,27,28,29},
	{1,2,3,4,5,6,7,8,9,10,11,12,13,14,15,16,17,18,19,20,21,22,23,24,25,26,27,28,29,30},
	{1,2,4,5,6,8,9,10,11,12,13,14,15,16,17,18,19,20,21,22,23,24,25,26,27,28,29},
	{1,2,3,4,5,6,7,8,9,10,11,12,14,15,16,17,18,19,20,21,22,23,24,25,26,27,28,29,30},
	{1,2,3,4,5,6,7,8,9,10,11,12,13,14,15,16,17,18,19,20,21,22,23,24,25,26,27,28,29,30},
	{1,2,3,4,5,6,7,8,9,10,11,12,13,14,15,16,17,18,19,20,21,22,23,24,25,26,27,28,29,30},
	{}];

POTENTIAL_ACT = [{2,3,4,5,6,11,12,13,14,15,18,19,20,21,22,23,24,26,27,28,30,31,32,34,37,38,39,40,41},
	{2,3,4,5,6,7,8,9,10,11,12,13,14,15,16,17,18,19,20,21,22,23,24,25,26,27,28,29,30,31,32,33,34,35,36,37,38,39,40,41},
	{2,3,5,6,7,8,10,11,12,13,14,16,17,18,19,20,21,22,23,24,25,26,28,30,31,32,33,34,35,37,39,40,41},
	{2,3,4,5,6,7,8,9,10,11,12,13,15,16,17,19,20,21,22,23,24,25,26,27,29,30,31,32,33,34,35,36,37,38,39,40,41},
	{2,3,4,5,6,7,8,9,10,11,12,13,14,15,16,17,18,19,20,21,22,23,24,25,26,27,28,29,30,31,32,33,34,35,36,37,38,39,40,41},
	{2,3,4,5,6,7,8,9,10,11,12,13,14,15,16,17,18,19,20,21,22,23,24,25,26,27,28,29,30,31,32,33,34,35,36,37,38,39,40,41},
	{2,3,5,6,7,8,10,11,12,13,14,16,17,18,19,20,21,22,23,24,25,26,28,30,31,32,33,34,35,37,39,40,41},
	{2,3,4,5,6,7,8,9,10,11,12,13,14,15,16,17,18,19,20,21,22,23,24,25,26,27,28,29,30,31,32,33,34,35,36,37,38,39,40,41},
	{2,3,4,5,6,7,8,9,10,11,12,13,14,15,16,17,18,19,20,21,22,23,24,25,26,27,28,29,30,31,32,33,34,35,36,37,38,39,40,41},
	{2,3,4,5,6,7,8,9,10,11,12,13,14,15,16,17,18,19,20,21,22,23,24,25,26,27,28,29,30,31,32,33,34,35,36,37,38,39,40,41},
	{2,3,5,6,7,8,9,10,11,12,13,15,16,17,19,20,21,22,23,24,25,26,29,30,32,35,36,37,38,39,40,41},
	{2,3,4,5,6,7,8,9,10,11,12,13,14,15,16,17,18,19,20,21,22,23,24,25,26,27,28,29,30,31,32,33,34,35,36,37,38,39,40,41},
	{2,4,5,6,8,9,10,11,12,13,16,17,19,21,22,23,24,27,29,31,32,33,34,35,36,37,38,40,41},
	{2,3,5,6,7,8,9,10,11,12,13,15,16,17,19,20,21,22,23,24,25,26,29,30,32,35,36,37,38,39,40,41},
	{2,3,5,6,7,8,9,10,11,12,13,15,16,17,19,20,21,22,23,24,25,26,29,30,32,35,36,37,38,39,40,41},
	{2,3,5,6,7,8,9,10,11,12,13,15,16,17,19,20,21,22,23,24,25,26,29,30,32,35,36,37,38,39,40,41},
	{2,3,4,5,6,7,8,10,11,12,13,14,15,16,17,18,19,20,21,22,23,24,25,26,27,28,30,31,32,33,34,35,37,38,39,40,41},
	{2,3,5,6,7,8,9,10,11,12,13,15,16,17,19,20,21,22,23,24,25,26,29,30,32,35,36,37,38,39,40,41},
	{2,3,4,5,6,7,8,9,10,11,12,13,14,16,17,18,19,20,21,22,23,24,25,26,27,28,29,30,31,32,33,34,35,36,37,38,39,40,41},
	{2,3,4,5,6,7,8,9,10,11,12,13,14,15,16,17,18,19,20,21,22,23,24,25,26,27,28,29,30,31,32,33,34,35,36,37,38,39,40,41},
	{2,3,4,5,6,7,8,9,10,11,12,13,14,15,16,17,18,19,20,21,22,23,24,25,26,27,28,29,30,31,32,33,34,35,36,37,38,39,40,41},
	{2,3,4,5,6,7,8,9,10,11,12,13,14,15,16,17,18,19,20,21,22,23,24,25,26,27,28,29,30,31,32,33,34,35,36,37,38,39,40,41},
	{2,3,5,6,7,8,9,10,11,12,13,15,16,17,19,20,21,22,23,24,25,26,29,30,32,35,36,37,38,39,40,41},
	{2,3,4,5,6,7,8,9,10,11,12,13,14,15,16,17,18,19,20,21,22,23,24,25,26,27,28,29,30,31,32,33,34,35,36,37,38,39,40,41},
	{2,3,4,5,6,8,9,10,11,12,13,14,15,16,17,18,19,20,21,22,23,24,26,27,28,29,30,31,32,33,34,35,36,37,38,39,40,41},
	{2,3,4,5,6,7,8,9,10,11,12,13,14,16,17,18,19,20,21,22,23,24,25,26,27,28,29,30,31,32,33,34,35,36,37,38,39,40,41},
	{2,3,5,6,7,8,9,10,11,12,13,15,16,17,19,20,21,22,23,24,25,26,29,30,32,35,36,37,38,39,40,41},
	{2,3,4,5,6,7,8,9,10,11,12,13,14,15,16,17,18,19,20,21,22,23,24,25,26,27,28,29,30,31,32,34,35,36,37,38,39,40,41},
	{2,3,4,5,6,7,8,9,10,11,12,13,14,15,16,17,18,19,20,21,22,23,24,25,26,27,28,29,30,31,32,33,34,35,36,37,38,39,40,41},
	{2,3,5,6,7,8,10,11,12,13,14,16,17,18,19,20,21,22,23,24,25,26,28,30,31,32,33,34,35,37,39,40,41}];
